Gurobi Optimizer version 9.1.2 build v9.1.2rc0 (linux64)
Thread count: 36 physical cores, 72 logical processors, using up to 32 threads
Optimize a model with 12 rows, 57 columns and 590 nonzeros
Model fingerprint: 0xf32eec78
Model has 47 quadratic constraints
Coefficient statistics:
  Matrix range     [2e-05, 3e+00]
  QMatrix range    [1e+00, 1e+00]
  QLMatrix range   [1e+00, 1e+00]
  Objective range  [8e-03, 7e-01]
  Bounds range     [1e+00, 1e+00]
  RHS range        [1e+00, 1e+00]
Presolve removed 9 rows and 0 columns

Continuous model is non-convex -- solving as a MIP.

Presolve removed 9 rows and 0 columns
Presolve time: 0.00s
Presolved: 189 rows, 57 columns, 443 nonzeros
Presolved model has 47 bilinear constraint(s)
Variable types: 57 continuous, 0 integer (0 binary)

Root relaxation: objective -1.743721e+00, 44 iterations, 0.00 seconds

    Nodes    |    Current Node    |     Objective Bounds      |     Work
 Expl Unexpl |  Obj  Depth IntInf | Incumbent    BestBd   Gap | It/Node Time

     0     0   -1.74372    0   38          -   -1.74372      -     -    0s
H    0     0                       0.6147548   -1.74372   384%     -    0s
     0     0   -1.64739    0    1    0.61475   -1.64739   368%     -    0s
H    0     0                      -1.6450460   -1.64739  0.14%     -    0s
     0     0     cutoff    0        -1.64505   -1.64505  0.00%     -    0s

Cutting planes:
  RLT: 25
  BQP: 3

Explored 1 nodes (76 simplex iterations) in 0.01 seconds
Thread count was 32 (of 72 available processors)

Solution count 2: -1.64505 0.614755 
No other solutions better than -1.64505

Optimal solution found (tolerance 1.00e-04)
Best objective -1.645045978473e+00, best bound -1.645045978473e+00, gap 0.0000%

User-callback calls 78, time in user-callback 0.00 sec
Gurobi Optimizer version 9.1.2 build v9.1.2rc0 (linux64)
Thread count: 36 physical cores, 72 logical processors, using up to 32 threads
Optimize a model with 24 rows, 125 columns and 2580 nonzeros
Model fingerprint: 0xe60ea438
Model has 105 quadratic constraints
Coefficient statistics:
  Matrix range     [6e-06, 5e+01]
  QMatrix range    [1e+00, 1e+00]
  QLMatrix range   [1e+00, 1e+00]
  Objective range  [2e-02, 1e+00]
  Bounds range     [1e+00, 1e+00]
  RHS range        [1e+00, 1e+00]
Presolve removed 10 rows and 0 columns

Continuous model is non-convex -- solving as a MIP.

Presolve removed 10 rows and 0 columns
Presolve time: 0.00s
Presolved: 429 rows, 125 columns, 2142 nonzeros
Presolved model has 105 bilinear constraint(s)
Variable types: 125 continuous, 0 integer (0 binary)

Root relaxation: objective -6.951873e+00, 139 iterations, 0.00 seconds

    Nodes    |    Current Node    |     Objective Bounds      |     Work
 Expl Unexpl |  Obj  Depth IntInf | Incumbent    BestBd   Gap | It/Node Time

     0     0   -6.95187    0   75          -   -6.95187      -     -    0s
H    0     0                       0.1220897   -6.95187  5794%     -    0s
     0     0   -5.53494    0   83    0.12209   -5.53494  4634%     -    0s
H    0     0                      -1.6508560   -5.53494   235%     -    0s
     0     0   -5.52578    0   83   -1.65086   -5.52578   235%     -    0s
     0     0   -5.16820    0   70   -1.65086   -5.16820   213%     -    0s
H    0     0                      -2.2492254   -5.16820   130%     -    0s
     0     0   -5.12526    0   70   -2.24923   -5.12526   128%     -    0s
     0     0   -5.07639    0   88   -2.24923   -5.07639   126%     -    0s
H    0     0                      -2.4407424   -5.07639   108%     -    0s
     0     0   -5.07296    0   88   -2.44074   -5.07296   108%     -    0s
     0     0   -5.06699    0   88   -2.44074   -5.06699   108%     -    0s
H    0     0                      -2.5626055   -5.06699  97.7%     -    0s
     0     0   -5.06561    0   88   -2.56261   -5.06561  97.7%     -    0s
     0     0   -5.05427    0   94   -2.56261   -5.05427  97.2%     -    0s
     0     0   -5.05397    0   95   -2.56261   -5.05397  97.2%     -    0s
     0     0   -5.05273    0   88   -2.56261   -5.05273  97.2%     -    0s
     0     0   -5.05250    0   70   -2.56261   -5.05250  97.2%     -    0s
     0     0   -5.05213    0   70   -2.56261   -5.05213  97.1%     -    0s
H    0     0                      -3.3638548   -5.05213  50.2%     -    0s
H    0     0                      -3.9398054   -5.05213  28.2%     -    0s
H    0     0                      -4.0042516   -5.05213  26.2%     -    0s
     0     2   -5.05213    0   70   -4.00425   -5.05213  26.2%     -    0s
*  558   214              16      -4.0413617   -4.52010  11.8%  29.5    0s
*  560   214              16      -4.0414712   -4.52010  11.8%  29.4    0s
*  598   236              23      -4.0459609   -4.52010  11.7%  28.6    0s
*  731   334              25      -4.0460021   -4.52010  11.7%  25.7    0s
*  733   334              26      -4.0461054   -4.52010  11.7%  25.6    0s
*  764   334              24      -4.0695340   -4.52010  11.1%  25.0    0s
*  831   334              25      -4.1094286   -4.52010  10.0%  23.7    0s
*  832   334              25      -4.1097829   -4.52010  10.0%  23.7    0s
*  834   334              25      -4.1098257   -4.52010  10.0%  23.6    0s
*  864   380              23      -4.1780988   -4.52010  8.19%  23.0    0s
*  865   380              23      -4.1780994   -4.52010  8.19%  23.0    0s
* 1112   305              17      -4.1781173   -4.49501  7.58%  20.5    0s
* 1266   305              17      -4.1794613   -4.49501  7.55%  18.7    0s
* 1271   305              17      -4.1901121   -4.49501  7.28%  18.6    0s
* 1348   349              20      -4.1958913   -4.35402  3.77%  18.3    0s
* 1565   432              21      -4.2063293   -4.33325  3.02%  16.6    0s
* 1776   432              22      -4.2080808   -4.33325  2.97%  15.1    0s
* 1944   181              19      -4.2084492   -4.21073  0.05%  14.1    0s
* 1948   181              21      -4.2084580   -4.21073  0.05%  14.1    0s
* 1968   181              22      -4.2094370   -4.21073  0.03%  14.0    0s
* 1983   181              23      -4.2096754   -4.21073  0.02%  13.9    0s
* 2241    10              23      -4.2096755   -4.21005  0.01%  12.4    0s
* 2246    10              20      -4.2097018   -4.21005  0.01%  12.4    0s
* 2247    10              20      -4.2097026   -4.21005  0.01%  12.3    0s
* 2276    10              23      -4.2097118   -4.20985  0.00%  12.2    0s
* 2278    10              24      -4.2097130   -4.20985  0.00%  12.2    0s
* 2279    10              24      -4.2097136   -4.20985  0.00%  12.2    0s

Cutting planes:
  RLT: 61
  BQP: 3
  PSD: 59

Explored 2417 nodes (28292 simplex iterations) in 0.66 seconds
Thread count was 32 (of 72 available processors)

Solution count 10: -4.20971 -4.20971 -4.20971 ... -4.20808

Optimal solution found (tolerance 1.00e-04)
Best objective -4.209713566687e+00, best bound -4.209775960244e+00, gap 0.0015%

User-callback calls 5148, time in user-callback 0.00 sec



objective value: -4.209713566686919
objective bound: -4.209775960243617
x_opt: [1.0, 0.0, 1.0, 0.0, 0.19188835296372136, 0.0, 1.0, 1.0, 0.4620041060713614, 0.0, 0.0, 0.0, 0.782779252299251, 0.0, 0.4547744765764974, 0.31702841560457407, 0.0, 0.0, 0.0, 0.0]
GUROBI solution time: 0.6551718711853027




